15 61
6 13
1 11
1 3
0 7
4 11
8 10
6 14
2 13
8 11
5 14
9 13
9 14
13 14
3 14
4 7
4 10
2 11
7 10
2 7
5 13
8 12
1 10
6 12
5 7
5 11
6 7
1 14
1 8
11 13
0 14
1 4
9 11
11 14
0 6
0 12
8 13
0 11
7 8
0 8
6 10
3 10
1 13
5 6
2 12
11 12
0 1
3 6
10 14
7 13
4 6
9 12
3 9
3 5
2 14
6 11
4 9
0 3
0 13
3 13
10 11
3 11
